cpu-bind=MASK - n2lcn0129, task  0  0 [742269]: mask |--------|--------||--------|--------||--------|--------||--------|--------||||--------|--------||--------|----BBBB||--------|--------||--------|--------|  set
started at Fri Mar 17 12:18:50 CET 2023
Timecheck 10015677.847520588
Set parameter TokenServer to value "license3.uni-paderborn.de"
Warning: Gurobi version mismatch between Python 10.0.1 and C library 10.0.0
Timecheck 10015677.851448128
Timecheck 10015677.851663517
Timecheck 10015677.851703696
Timecheck 10015677.851726815


####################################################################################################
Solve scenario sce_4_26_1 with free vessel operation using the arc flow model
Vessels cannot omit ports, Demands can be rejected
####################################################################################################
Data preprocessing, load /upb/departments/pc2/groups/hpc-prf-winf4/dwetzel/SILSRP/inst_final/sce_4_26_1
and create additional sets and parameters
	|- Read vessel information, number of vessels:	9
	|- Read node information, number of nodes:		475
	|- Read arc information
		|- Number of sailing arcs:			1976
		|- Number of transshipment arcs:	700
	|- Read container information
		|- Number of demands:		1726
		|- Number of empties (+/-):	244/203
	|- Create additional sets and parameters

Data preprocessing took 	00:00:00.857
####################################################################################################
Create linear model
Set parameter Threads to value 4
	|- Create variables, took	00:00:01.178
	|- Create objective, took	00:00:00.971
	|- Create constraints, took	00:00:03.782
	|- Load heuristic start

Creating model took	00:00:05.956
####################################################################################################
Fix start solution

Set parameter TimeLimit to value 86255.0143435467
Gurobi Optimizer version 10.0.0 build v10.0.0rc2 (linux64)

CPU model: AMD EPYC 7763 64-Core Processor, instruction set [SSE2|AVX|AVX2]
Thread count: 128 physical cores, 128 logical processors, using up to 4 threads

Optimize a model with 75976 rows, 282978 columns and 927859 nonzeros
Model fingerprint: 0x08bc1818
Variable types: 263003 continuous, 19975 integer (19975 binary)
Coefficient statistics:
  Matrix range     [1e+00, 5e+05]
  Objective range  [1e+00, 1e+00]
  Bounds range     [1e+00, 3e+02]
  RHS range        [1e+00, 1e+08]
Found heuristic solution: objective 1.637309e+08
Presolve removed 66246 rows and 257994 columns
Presolve time: 0.91s
Presolved: 9730 rows, 24984 columns, 75113 nonzeros
Found heuristic solution: objective 5.418001e+07
Variable types: 23476 continuous, 1508 integer (1507 binary)
Found heuristic solution: objective 5.359712e+07

Root relaxation: objective 3.400112e+07, 2812 iterations, 0.03 seconds (0.02 work units)

    Nodes    |    Current Node    |     Objective Bounds      |     Work
 Expl Unexpl |  Obj  Depth IntInf | Incumbent    BestBd   Gap | It/Node Time

     0     0 3.4001e+07    0    2 5.3597e+07 3.4001e+07  36.6%     -    1s
H    0     0                    3.432854e+07 3.4001e+07  0.95%     -    1s
H    0     0                    3.431861e+07 3.4001e+07  0.93%     -    1s
H    0     0                    3.400558e+07 3.4001e+07  0.01%     -    1s

Cutting planes:
  Gomory: 1
  MIR: 3
  Flow cover: 1

Explored 1 nodes (2812 simplex iterations) in 1.30 seconds (1.03 work units)
Thread count was 4 (of 128 available processors)

Solution count 6: 3.40056e+07 3.43186e+07 3.43285e+07 ... 1.63731e+08

Optimal solution found (tolerance 1.00e-04)
Best objective 3.400557700000e+07, best bound 3.400410500000e+07, gap 0.0043%

Fixing start solution took	00:00:07.371
####################################################################################################
####################################################################################################
Solve optimization model

Set parameter TimeLimit to value 8.6253690736254677e+04
Gurobi Optimizer version 10.0.0 build v10.0.0rc2 (linux64)

CPU model: AMD EPYC 7763 64-Core Processor, instruction set [SSE2|AVX|AVX2]
Thread count: 128 physical cores, 128 logical processors, using up to 4 threads

Optimize a model with 75502 rows, 282978 columns and 927385 nonzeros
Model fingerprint: 0x81e30533
Variable types: 263003 continuous, 19975 integer (19975 binary)
Coefficient statistics:
  Matrix range     [1e+00, 5e+05]
  Objective range  [1e+00, 1e+00]
  Bounds range     [1e+00, 3e+02]
  RHS range        [1e+00, 1e+08]

Loaded MIP start from previous solve with objective 3.40056e+07

Presolve removed 11734 rows and 21063 columns (presolve time = 5s) ...
Presolve removed 11822 rows and 21068 columns
Presolve time: 5.23s
Presolved: 63680 rows, 261910 columns, 754323 nonzeros
Variable types: 244388 continuous, 17522 integer (17522 binary)
Deterministic concurrent LP optimizer: primal simplex, dual simplex, and barrier
Showing barrier log only...

Root barrier log...

Ordering time: 1.35s

Barrier statistics:
 AA' NZ     : 6.941e+05
 Factor NZ  : 8.093e+06 (roughly 200 MB of memory)
 Factor Ops : 2.853e+09 (less than 1 second per iteration)
 Threads    : 2

                  Objective                Residual
Iter       Primal          Dual         Primal    Dual     Compl     Time
   0   1.33713103e+15 -1.39816645e+14  1.72e+09 1.03e+04  1.25e+12     8s
   1   2.14734398e+14 -4.04086812e+13  2.57e+08 8.25e+03  1.97e+11     8s
   2   3.51597168e+13 -1.17407471e+13  4.15e+07 5.18e+02  3.24e+10     8s
   3   4.25364484e+12 -3.26012681e+12  4.99e+06 9.31e-10  3.92e+09     8s
   4   8.34390859e+11 -9.24751753e+11  9.76e+05 2.65e-09  7.77e+08     9s
   5   1.48869996e+11 -3.42049571e+11  1.73e+05 6.40e-10  1.39e+08     9s
   6   3.91509113e+10 -2.23480430e+11  4.53e+04 7.42e-10  3.66e+07     9s
   7   9.11981832e+09 -1.71452673e+11  1.05e+04 1.63e-09  8.78e+06     9s
   8   2.55289711e+09 -1.27872363e+11  2.85e+03 4.31e-09  2.51e+06     9s
   9   8.26782040e+08 -8.97792068e+10  8.22e+02 4.77e-09  8.00e+05    10s
  10   3.03324883e+08 -5.54607670e+10  1.89e+02 1.34e-09  2.60e+05    10s
  11   1.57213165e+08 -2.80135788e+10  5.36e+01 1.46e-08  9.60e+04    10s
  12   1.10381997e+08 -1.58221651e+10  2.38e+01 2.50e-09  4.71e+04    10s
  13   9.25689985e+07 -1.09510167e+10  1.39e+01 3.66e-08  3.02e+04    10s
  14   7.94209210e+07 -7.36369226e+09  7.68e+00 1.49e-07  1.89e+04    11s
  15   6.91411481e+07 -3.39075515e+09  3.83e+00 4.40e-09  8.76e+03    11s
  16   5.77703523e+07 -1.84777306e+09  1.36e+00 9.33e-08  4.36e+03    11s
  17   5.24720082e+07 -9.38451523e+08  6.45e-01 1.62e-08  2.22e+03    11s
  18   4.72919691e+07 -4.26307795e+08  2.03e-01 3.41e-08  1.01e+03    11s
  19   4.19283841e+07 -1.28021172e+08  6.36e-02 1.71e-08  3.61e+02    12s
  20   3.84440654e+07 -4.11477201e+07  3.06e-02 1.80e-07  1.71e+02    12s
  21   3.66202475e+07 -1.45602111e+07  2.05e-02 7.99e-09  1.11e+02    12s
  22   3.46612812e+07  4.54246571e+06  1.22e-02 4.11e-07  6.57e+01    12s
  23   3.29212359e+07  1.63151894e+07  6.89e-03 3.98e-07  3.66e+01    13s
  24   3.18124463e+07  2.41839401e+07  4.44e-03 1.29e-08  1.79e+01    13s
  25   3.09421712e+07  2.64324993e+07  2.56e-03 9.93e-09  1.06e+01    13s
  26   3.03302805e+07  2.75124499e+07  1.40e-03 1.57e-08  6.45e+00    13s
  27   3.00744618e+07  2.80041748e+07  9.63e-04 5.44e-07  4.70e+00    13s
  28   2.98468937e+07  2.85530703e+07  5.90e-04 8.40e-09  2.95e+00    14s
  29   2.97427099e+07  2.88907818e+07  4.24e-04 1.83e-07  1.98e+00    14s
  30   2.96321872e+07  2.90811876e+07  2.56e-04 8.40e-08  1.27e+00    14s
  31   2.95525164e+07  2.91655666e+07  1.35e-04 1.14e-07  8.54e-01    14s
  32   2.95006897e+07  2.93124878e+07  6.24e-05 1.77e-08  4.12e-01    14s
  33   2.94736273e+07  2.93697926e+07  2.62e-05 2.28e-08  2.22e-01    15s
  34   2.94605667e+07  2.94152996e+07  8.74e-06 3.37e-07  9.46e-02    15s
  35   2.94564146e+07  2.94429655e+07  3.50e-06 7.50e-08  2.91e-02    15s
  36   2.94552774e+07  2.94503375e+07  2.06e-06 1.12e-06  1.15e-02    15s
  37   2.94543915e+07  2.94520358e+07  1.34e-06 4.58e-07  5.44e-03    16s
  38   2.94537923e+07  2.94528102e+07  1.21e-06 2.26e-06  2.07e-03    16s
  39   2.94536750e+07  2.94536050e+07  5.68e-07 2.58e-06  1.84e-04    16s
  40   2.94536375e+07  2.94536368e+07  1.17e-08 7.49e-06  2.30e-06    16s
  41   1.33713103e+15 -1.40689592e+15  1.72e+09 1.73e+03  1.25e+13    17s
  42   1.86359428e+14 -2.34004882e+14  2.27e+08 5.98e+04  1.21e+12    17s
  43   3.06907418e+13 -4.67119121e+13  3.62e+07 3.92e-09  1.64e+11    17s
  44   5.04024473e+12 -1.61530662e+13  5.93e+06 7.37e-09  2.43e+10    17s
  45   5.60641426e+11 -2.95061221e+12  6.57e+05 3.82e-09  2.14e+09    18s
  46   1.26468803e+11 -9.00063604e+11  1.48e+05 1.45e-09  3.20e+08    18s
  47   3.55035735e+10 -3.29216262e+11  4.18e+04 9.61e-10  5.37e+07    18s
  48   7.02237903e+09 -1.05630549e+11  8.44e+03 4.38e-10  4.78e+06    18s
  49   1.73573889e+09 -3.22433830e+10  2.08e+03 2.34e-10  5.03e+05    19s
  50   5.77274363e+08 -9.05180545e+09  6.23e+02 9.10e-10  7.29e+04    19s
  51   2.09025864e+08 -4.41078448e+09  1.33e+02 5.94e-10  1.80e+04    19s
  52   1.10981061e+08 -1.87938392e+09  4.34e+01 2.08e-09  5.97e+03    19s
  53   7.86208431e+07 -1.05032401e+09  2.16e+01 1.45e-09  3.06e+03    19s
  54   6.19260639e+07 -6.24115138e+08  1.16e+01 8.75e-10  1.74e+03    20s
  55   5.19001690e+07 -3.24390402e+08  6.54e+00 6.04e-10  9.33e+02    20s
  56   4.57973510e+07 -1.73073047e+08  3.99e+00 3.91e-10  5.33e+02    20s
  57   3.92882787e+07 -7.81733124e+07  1.68e+00 1.13e-09  2.67e+02    20s
  58   3.56015715e+07 -1.98006223e+07  6.75e-01 7.97e-10  1.22e+02    21s
  59   3.38988518e+07  1.51660363e+06  3.88e-01 4.45e-09  7.10e+01    21s
  60   3.27040167e+07  1.13969565e+07  2.41e-01 1.15e-09  4.65e+01    21s
  61   3.17337854e+07  1.86706126e+07  1.59e-01 3.38e-08  2.88e+01    21s
  62   3.09069283e+07  2.30652453e+07  8.83e-02 5.05e-09  1.72e+01    21s
  63   3.03912197e+07  2.53637422e+07  5.25e-02 1.91e-08  1.09e+01    22s
  64   3.02536594e+07  2.64297090e+07  4.40e-02 3.07e-08  8.43e+00    22s
  65   2.99586528e+07  2.75858779e+07  2.73e-02 2.47e-08  5.24e+00    22s
  66   2.97478578e+07  2.84953352e+07  1.54e-02 2.98e-08  2.80e+00    22s
  67   2.96137570e+07  2.89357134e+07  8.24e-03 1.93e-08  1.52e+00    23s
  68   2.95361904e+07  2.91171459e+07  4.12e-03 2.47e-08  9.12e-01    23s
  69   2.94982245e+07  2.92154722e+07  2.16e-03 5.87e-08  5.98e-01    23s
  70   2.94842427e+07  2.93258927e+07  1.46e-03 1.39e-07  3.43e-01    23s
  71   2.94663912e+07  2.93779613e+07  5.87e-04 3.43e-07  1.85e-01    24s
  72   2.94612732e+07  2.94012235e+07  3.39e-04 2.85e-07  1.24e-01    24s
  73   2.94564789e+07  2.94478231e+07  1.19e-04 6.16e-07  2.00e-02    24s
  74   2.94539396e+07  2.94525592e+07  1.26e-05 3.94e-06  3.00e-03    24s
  75   2.94537074e+07  2.94531956e+07  3.03e-06 2.87e-05  1.06e-03    25s
  76   2.94536959e+07  2.94532838e+07  3.08e-06 2.75e-05  8.57e-04    25s
  77   2.94536701e+07  2.94534468e+07  1.93e-06 2.54e-05  4.66e-04    25s
  78   2.94536673e+07  2.94534644e+07  1.64e-06 2.45e-05  4.23e-04    26s
  79   2.94536412e+07  2.94536337e+07  2.72e-07 4.76e-05  1.99e-05    26s
  80   2.94536406e+07  2.94536368e+07  2.33e-07 1.15e-04  1.20e-05    26s
  81   2.94536403e+07  2.94536369e+07  2.14e-07 2.15e-04  1.08e-05    26s
  82   2.94536401e+07  2.94536369e+07  2.03e-07 1.55e-04  1.03e-05    27s
  83   2.94536401e+07  2.94536369e+07  2.02e-07 2.20e-04  1.02e-05    27s
  84   2.94536401e+07  2.94536369e+07  2.02e-07 2.44e-04  1.02e-05    27s
  85   2.94536401e+07  2.94536369e+07  2.02e-07 2.88e-04  1.03e-05    28s
  86   2.94536401e+07  2.94536369e+07  2.02e-07 3.25e-04  1.03e-05    28s
  87   2.94536401e+07  2.94536367e+07  2.10e-07 3.65e-04  1.07e-05    28s
  88   2.94536401e+07  2.94536367e+07  2.10e-07 4.31e-04  1.07e-05    29s
  89   2.94536401e+07  2.94536367e+07  2.10e-07 5.40e-04  1.07e-05    30s
  90   2.94536401e+07  2.94536367e+07  2.10e-07 4.53e-04  1.07e-05    30s
  91   2.94536401e+07  2.94536367e+07  2.10e-07 3.62e-04  1.07e-05    31s

Barrier performed 91 iterations in 30.52 seconds (28.73 work units)
Sub-optimal termination - objective 2.94536375e+07


Root crossover log...

   54013 DPushes remaining with DInf 0.0000000e+00                31s
       0 DPushes remaining with DInf 0.0000000e+00                31s

    3723 PPushes remaining with PInf 1.0488478e-03                31s
       0 PPushes remaining with PInf 0.0000000e+00                31s

  Push phase complete: Pinf 0.0000000e+00, Dinf 4.1047471e+00     31s


Root simplex log...

Iteration    Objective       Primal Inf.    Dual Inf.      Time
   56146    2.9453637e+07   0.000000e+00   4.104905e+00     32s
   56291    2.9453637e+07   0.000000e+00   0.000000e+00     32s
Concurrent spin time: 8.72s (can be avoided by choosing Method=3)

Solved with barrier
   56437    2.9453637e+07   0.000000e+00   0.000000e+00     41s
Extra simplex iterations after uncrush: 146

Root relaxation: objective 2.945364e+07, 56437 iterations, 35.28 seconds (26.29 work units)

    Nodes    |    Current Node    |     Objective Bounds      |     Work
 Expl Unexpl |  Obj  Depth IntInf | Incumbent    BestBd   Gap | It/Node Time

     0     0 2.9454e+07    0 2672 3.4006e+07 2.9454e+07  13.4%     -   43s
     0     0 2.9840e+07    0 2423 3.4006e+07 2.9840e+07  12.3%     -  368s
     0     0 2.9840e+07    0 2485 3.4006e+07 2.9840e+07  12.3%     -  457s
     0     0 2.9877e+07    0 2540 3.4006e+07 2.9877e+07  12.1%     -  824s
     0     0 2.9880e+07    0 2507 3.4006e+07 2.9880e+07  12.1%     -  920s
     0     0 2.9880e+07    0 2531 3.4006e+07 2.9880e+07  12.1%     -  921s
     0     0 2.9881e+07    0 2547 3.4006e+07 2.9881e+07  12.1%     -  960s
     0     0 2.9881e+07    0 2558 3.4006e+07 2.9881e+07  12.1%     -  964s
     0     0 2.9881e+07    0 2556 3.4006e+07 2.9881e+07  12.1%     - 1073s
     0     0 2.9881e+07    0 2572 3.4006e+07 2.9881e+07  12.1%     - 1075s
     0     0 2.9882e+07    0 2541 3.4006e+07 2.9882e+07  12.1%     - 1082s
     0     0 2.9882e+07    0 2565 3.4006e+07 2.9882e+07  12.1%     - 1087s
     0     0 3.0046e+07    0 2622 3.4006e+07 3.0046e+07  11.6%     - 1704s
     0     0 3.0046e+07    0 2627 3.4006e+07 3.0046e+07  11.6%     - 1709s
     0     0 3.0120e+07    0 2679 3.4006e+07 3.0120e+07  11.4%     - 2190s
     0     0 3.0120e+07    0 2680 3.4006e+07 3.0120e+07  11.4%     - 2224s
     0     0 3.0144e+07    0 2639 3.4006e+07 3.0144e+07  11.4%     - 2510s
     0     0 3.0144e+07    0 2667 3.4006e+07 3.0144e+07  11.4%     - 2515s
     0     0 3.0151e+07    0 2653 3.4006e+07 3.0151e+07  11.3%     - 2724s
     0     0 3.0154e+07    0 2714 3.4006e+07 3.0154e+07  11.3%     - 2800s
     0     0 3.0154e+07    0 2743 3.4006e+07 3.0154e+07  11.3%     - 2862s
     0     0 3.0155e+07    0 2718 3.4006e+07 3.0155e+07  11.3%     - 2968s
     0     0 3.0155e+07    0 2747 3.4006e+07 3.0155e+07  11.3%     - 3018s
     0     0 3.0156e+07    0 2691 3.4006e+07 3.0156e+07  11.3%     - 3061s
     0     0 3.0156e+07    0 2675 3.4006e+07 3.0156e+07  11.3%     - 3077s
     0     0 3.0156e+07    0 2738 3.4006e+07 3.0156e+07  11.3%     - 3086s
     0     0 3.0156e+07    0 2736 3.4006e+07 3.0156e+07  11.3%     - 3094s
     0     0 3.0156e+07    0 2745 3.4006e+07 3.0156e+07  11.3%     - 3151s
     0     0 3.0231e+07    0 2604 3.4006e+07 3.0231e+07  11.1%     - 3569s
     0     0 3.0231e+07    0 1914 3.4006e+07 3.0231e+07  11.1%     - 3873s
     0     0 3.0231e+07    0 2123 3.4006e+07 3.0231e+07  11.1%     - 4131s
     0     0 3.0231e+07    0 2108 3.4006e+07 3.0231e+07  11.1%     - 4506s
     0     0 3.0231e+07    0 2175 3.4006e+07 3.0231e+07  11.1%     - 4518s
     0     0 3.0231e+07    0 2200 3.4006e+07 3.0231e+07  11.1%     - 4679s
     0     0 3.0231e+07    0 2192 3.4006e+07 3.0231e+07  11.1%     - 4681s
     0     0 3.0233e+07    0 2167 3.4006e+07 3.0233e+07  11.1%     - 4835s
     0     0 3.0242e+07    0 2165 3.4006e+07 3.0242e+07  11.1%     - 4898s
     0     0 3.0242e+07    0 2133 3.4006e+07 3.0242e+07  11.1%     - 4946s
     0     0 3.0244e+07    0 2147 3.4006e+07 3.0244e+07  11.1%     - 5064s
     0     0 3.0245e+07    0 2119 3.4006e+07 3.0245e+07  11.1%     - 5087s
     0     0 3.0246e+07    0 2174 3.4006e+07 3.0246e+07  11.1%     - 5105s
     0     0 3.0246e+07    0 2133 3.4006e+07 3.0246e+07  11.1%     - 5112s
     0     0 3.0246e+07    0 2133 3.4006e+07 3.0246e+07  11.1%     - 5112s
     0     0 3.0307e+07    0 2313 3.4006e+07 3.0307e+07  10.9%     - 5360s
     0     0 3.0307e+07    0 2302 3.4006e+07 3.0307e+07  10.9%     - 5360s
     0     0 3.0349e+07    0 2216 3.4006e+07 3.0349e+07  10.8%     - 5552s
     0     0 3.0349e+07    0 2187 3.4006e+07 3.0349e+07  10.8%     - 5579s
     0     0 3.0361e+07    0 2270 3.4006e+07 3.0361e+07  10.7%     - 5760s
     0     0 3.0361e+07    0 2246 3.4006e+07 3.0361e+07  10.7%     - 5762s
     0     0 3.0364e+07    0 2268 3.4006e+07 3.0364e+07  10.7%     - 5914s
     0     0 3.0366e+07    0 2261 3.4006e+07 3.0366e+07  10.7%     - 5959s
     0     0 3.0366e+07    0 2277 3.4006e+07 3.0366e+07  10.7%     - 6134s
     0     0 3.0366e+07    0 2264 3.4006e+07 3.0366e+07  10.7%     - 6219s
     0     0 3.0366e+07    0 2279 3.4006e+07 3.0366e+07  10.7%     - 6267s
     0     0 3.0366e+07    0 2274 3.4006e+07 3.0366e+07  10.7%     - 6484s
     0     0 3.0366e+07    0 2289 3.4006e+07 3.0366e+07  10.7%     - 6517s
     0     0 3.0407e+07    0 2224 3.4006e+07 3.0407e+07  10.6%     - 6874s
     0     0 3.0407e+07    0 2228 3.4006e+07 3.0407e+07  10.6%     - 6948s
     0     0 3.0428e+07    0 2194 3.4006e+07 3.0428e+07  10.5%     - 7150s
     0     0 3.0428e+07    0 2220 3.4006e+07 3.0428e+07  10.5%     - 7217s
     0     0 3.0446e+07    0 2292 3.4006e+07 3.0446e+07  10.5%     - 7501s
     0     0 3.0446e+07    0 2309 3.4006e+07 3.0446e+07  10.5%     - 7563s
     0     0 3.0451e+07    0 2315 3.4006e+07 3.0451e+07  10.5%     - 7665s
     0     0 3.0451e+07    0 2369 3.4006e+07 3.0451e+07  10.5%     - 7685s
     0     0 3.0456e+07    0 2324 3.4006e+07 3.0456e+07  10.4%     - 7843s
     0     0 3.0456e+07    0 2307 3.4006e+07 3.0456e+07  10.4%     - 7907s
     0     0 3.0457e+07    0 2335 3.4006e+07 3.0457e+07  10.4%     - 7967s
     0     0 3.0457e+07    0 2279 3.4006e+07 3.0457e+07  10.4%     - 8033s
     0     0 3.0457e+07    0 2324 3.4006e+07 3.0457e+07  10.4%     - 8082s
     0     0 3.0457e+07    0 2311 3.4006e+07 3.0457e+07  10.4%     - 8097s
     0     0 3.0457e+07    0 2324 3.4006e+07 3.0457e+07  10.4%     - 8126s
     0     0 3.0457e+07    0 2331 3.4006e+07 3.0457e+07  10.4%     - 8129s
     0     0 3.0476e+07    0 2186 3.4006e+07 3.0476e+07  10.4%     - 8562s
     0     0 3.0476e+07    0 2277 3.4006e+07 3.0476e+07  10.4%     - 8637s
     0     0 3.0486e+07    0 2297 3.4006e+07 3.0486e+07  10.3%     - 8862s
     0     0 3.0486e+07    0 2252 3.4006e+07 3.0486e+07  10.3%     - 8922s
     0     0 3.0491e+07    0 2284 3.4006e+07 3.0491e+07  10.3%     - 9152s
     0     0 3.0491e+07    0 2297 3.4006e+07 3.0491e+07  10.3%     - 9187s
     0     0 3.0494e+07    0 2270 3.4006e+07 3.0494e+07  10.3%     - 9295s
     0     0 3.0496e+07    0 2297 3.4006e+07 3.0496e+07  10.3%     - 9387s
     0     0 3.0497e+07    0 2310 3.4006e+07 3.0497e+07  10.3%     - 9456s
     0     0 3.0497e+07    0 2306 3.4006e+07 3.0497e+07  10.3%     - 9545s
     0     0 3.0498e+07    0 2284 3.4006e+07 3.0498e+07  10.3%     - 9584s
     0     0 3.0498e+07    0 2266 3.4006e+07 3.0498e+07  10.3%     - 9634s
     0     0 3.0498e+07    0 2244 3.4006e+07 3.0498e+07  10.3%     - 9693s
     0     0 3.0498e+07    0 2272 3.4006e+07 3.0498e+07  10.3%     - 9837s
     0     0 3.0498e+07    0 2282 3.4006e+07 3.0498e+07  10.3%     - 9893s
     0     0 3.0510e+07    0 2260 3.4006e+07 3.0510e+07  10.3%     - 10217s
     0     0 3.0514e+07    0 2192 3.4006e+07 3.0514e+07  10.3%     - 10377s
     0     0 3.0514e+07    0 2180 3.4006e+07 3.0514e+07  10.3%     - 10380s
     0     0 3.0517e+07    0 2234 3.4006e+07 3.0517e+07  10.3%     - 10531s
     0     0 3.0517e+07    0 2164 3.4006e+07 3.0517e+07  10.3%     - 10595s
     0     0 3.0518e+07    0 2188 3.4006e+07 3.0518e+07  10.3%     - 10707s
     0     0 3.0518e+07    0 2177 3.4006e+07 3.0518e+07  10.3%     - 12257s
     0     0 3.0519e+07    0 2129 3.4006e+07 3.0519e+07  10.3%     - 12323s
     0     0 3.0519e+07    0 2174 3.4006e+07 3.0519e+07  10.3%     - 12368s
     0     0 3.0520e+07    0 2189 3.4006e+07 3.0520e+07  10.3%     - 12419s
     0     0 3.0520e+07    0 2173 3.4006e+07 3.0520e+07  10.3%     - 12421s
     0     0 3.0520e+07    0 2255 3.4006e+07 3.0520e+07  10.2%     - 12463s
     0     0 3.0521e+07    0 2171 3.4006e+07 3.0521e+07  10.2%     - 12507s
     0     0 3.0521e+07    0 2171 3.4006e+07 3.0521e+07  10.2%     - 12538s
     0     0 3.0521e+07    0 2211 3.4006e+07 3.0521e+07  10.2%     - 12613s
     0     0 3.0525e+07    0 2227 3.4006e+07 3.0525e+07  10.2%     - 12870s
     0     0 3.0529e+07    0 2182 3.4006e+07 3.0529e+07  10.2%     - 13032s
     0     0 3.0530e+07    0 2269 3.4006e+07 3.0530e+07  10.2%     - 13094s
     0     0 3.0530e+07    0 2239 3.4006e+07 3.0530e+07  10.2%     - 13135s
     0     0 3.0531e+07    0 2306 3.4006e+07 3.0531e+07  10.2%     - 13211s
     0     0 3.0531e+07    0 2314 3.4006e+07 3.0531e+07  10.2%     - 13211s
     0     0 3.0532e+07    0 2225 3.4006e+07 3.0532e+07  10.2%     - 13247s
     0     0 3.0532e+07    0 2157 3.4006e+07 3.0532e+07  10.2%     - 13348s
     0     0 3.0532e+07    0 2182 3.4006e+07 3.0532e+07  10.2%     - 13378s
     0     0 3.0535e+07    0 2219 3.4006e+07 3.0535e+07  10.2%     - 13543s
     0     0 3.0535e+07    0 2153 3.4006e+07 3.0535e+07  10.2%     - 13581s
     0     0 3.0536e+07    0 2159 3.4006e+07 3.0536e+07  10.2%     - 13776s
     0     0 3.0537e+07    0 2169 3.4006e+07 3.0537e+07  10.2%     - 13819s
     0     0 3.0537e+07    0 2220 3.4006e+07 3.0537e+07  10.2%     - 13880s
     0     0 3.0538e+07    0 2155 3.4006e+07 3.0538e+07  10.2%     - 13915s
     0     0 3.0538e+07    0 2115 3.4006e+07 3.0538e+07  10.2%     - 13930s
     0     0 3.0540e+07    0 2191 3.4006e+07 3.0540e+07  10.2%     - 14171s
     0     0 3.0541e+07    0 2208 3.4006e+07 3.0541e+07  10.2%     - 14234s
     0     0 3.0541e+07    0 2159 3.4006e+07 3.0541e+07  10.2%     - 14249s
     0     0 3.0541e+07    0 2179 3.4006e+07 3.0541e+07  10.2%     - 14345s
     0     0 3.0541e+07    0 2193 3.4006e+07 3.0541e+07  10.2%     - 14384s
     0     0 3.0542e+07    0 2237 3.4006e+07 3.0542e+07  10.2%     - 14587s
     0     0 3.0542e+07    0 2200 3.4006e+07 3.0542e+07  10.2%     - 14621s
     0     0 3.0545e+07    0 2109 3.4006e+07 3.0545e+07  10.2%     - 14795s
     0     0 3.0545e+07    0 2202 3.4006e+07 3.0545e+07  10.2%     - 14849s
     0     0 3.0546e+07    0 2222 3.4006e+07 3.0546e+07  10.2%     - 14899s
     0     0 3.0546e+07    0 2179 3.4006e+07 3.0546e+07  10.2%     - 14929s
     0     0 3.0546e+07    0 2225 3.4006e+07 3.0546e+07  10.2%     - 14984s
     0     0 3.0546e+07    0 2150 3.4006e+07 3.0546e+07  10.2%     - 15154s
     0     0 3.0547e+07    0 2243 3.4006e+07 3.0547e+07  10.2%     - 15238s
     0     0 3.0547e+07    0 2174 3.4006e+07 3.0547e+07  10.2%     - 15343s
     0     0 3.0548e+07    0 2189 3.4006e+07 3.0548e+07  10.2%     - 15401s
     0     0 3.0548e+07    0 2162 3.4006e+07 3.0548e+07  10.2%     - 15441s
     0     0 3.0549e+07    0 2236 3.4006e+07 3.0549e+07  10.2%     - 15496s
     0     0 3.0549e+07    0 2228 3.4006e+07 3.0549e+07  10.2%     - 15531s
     0     0 3.0549e+07    0 2196 3.4006e+07 3.0549e+07  10.2%     - 15614s
     0     0 3.0549e+07    0 2197 3.4006e+07 3.0549e+07  10.2%     - 15676s
     0     0 3.0549e+07    0 2197 3.4006e+07 3.0549e+07  10.2%     - 15677s
     0     2 3.0549e+07    0 2059 3.4006e+07 3.0549e+07  10.2%     - 16663s
     1     5 3.0549e+07    1 2044 3.4006e+07 3.0549e+07  10.2% 39130 16736s
     3     8 3.0550e+07    2 2134 3.4006e+07 3.0549e+07  10.2% 22208 17196s
     7    12 3.0550e+07    3 2102 3.4006e+07 3.0550e+07  10.2% 28183 17643s
    11    16 3.0554e+07    3 2069 3.4006e+07 3.0550e+07  10.2% 36036 18162s
    15    20 3.0550e+07    4 2120 3.4006e+07 3.0550e+07  10.2% 37469 18753s
    19    24 3.0588e+07    4 2166 3.4006e+07 3.0550e+07  10.2% 43558 19162s
    23    28 3.0560e+07    5 2122 3.4006e+07 3.0550e+07  10.2% 47351 19891s
    27    32 3.0566e+07    6 2073 3.4006e+07 3.0550e+07  10.2% 48119 20837s
    31    36 3.0571e+07    7 2118 3.4006e+07 3.0550e+07  10.2% 44939 23984s
    35    40 3.0577e+07    8 1946 3.4006e+07 3.0550e+07  10.2% 58033 25023s
    39    44 3.0585e+07    9 1964 3.4006e+07 3.0550e+07  10.2% 56107 26021s
    43    48 3.0619e+07    9 1910 3.4006e+07 3.0550e+07  10.2% 56010 27436s
    47    52 3.0606e+07   10 1898 3.4006e+07 3.0550e+07  10.2% 56826 28440s
    51    57 3.0626e+07   10 1947 3.4006e+07 3.0550e+07  10.2% 56560 31394s
    56    63 3.0613e+07   11 1881 3.4006e+07 3.0550e+07  10.2% 56524 32467s
    62    67 3.0658e+07   13 1931 3.4006e+07 3.0550e+07  10.2% 57022 34089s
    66    73 3.0644e+07   13 1829 3.4006e+07 3.0550e+07  10.2% 55743 35521s
    72    78 3.0664e+07   14 1791 3.4006e+07 3.0550e+07  10.2% 54643 36438s
    77    85 3.0718e+07   14 1801 3.4006e+07 3.0550e+07  10.2% 54102 37281s
    84    91 3.0666e+07   15 1772 3.4006e+07 3.0550e+07  10.2% 51264 38999s
    90    99 3.0685e+07   16 1816 3.4006e+07 3.0550e+07  10.2% 52016 40329s
    98   107 3.0733e+07   17 1759 3.4006e+07 3.0550e+07  10.2% 51716 41740s
   106   115 3.0734e+07   18 1817 3.4006e+07 3.0550e+07  10.2% 49703 43362s
   114   126 3.0742e+07   20 1762 3.4006e+07 3.0550e+07  10.2% 49509 45703s
   125   136 3.0768e+07   21 1745 3.4006e+07 3.0550e+07  10.2% 49003 47005s
   136   147 3.0783e+07   22 1729 3.4006e+07 3.0550e+07  10.2% 47264 48529s
   147   161 3.0884e+07   23 1695 3.4006e+07 3.0550e+07  10.2% 46261 49914s
   161   169 3.0850e+07   25 1689 3.4006e+07 3.0550e+07  10.2% 44520 51276s
   171   178 3.0900e+07   26 1648 3.4006e+07 3.0550e+07  10.2% 44540 52771s
   180   191 3.0965e+07   27 1602 3.4006e+07 3.0550e+07  10.2% 44292 54112s
   193   200 3.0963e+07   28 1649 3.4006e+07 3.0550e+07  10.2% 43355 57086s
   202   210 3.0936e+07   30 1677 3.4006e+07 3.0550e+07  10.2% 43903 59045s
   214   220 3.1015e+07   32 1592 3.4006e+07 3.0550e+07  10.2% 43695 63094s
   224   227 3.1083e+07   33 1546 3.4006e+07 3.0550e+07  10.2% 44888 64687s
   231   250 3.1206e+07   34 1587 3.4006e+07 3.0550e+07  10.2% 44803 66947s
   256   267 3.1375e+07   35 1522 3.4006e+07 3.0550e+07  10.2% 42908 69058s
   273   284 3.1175e+07   37 1629 3.4006e+07 3.0550e+07  10.2% 42589 71056s
   292   299 3.1991e+07   39 1437 3.4006e+07 3.0550e+07  10.2% 42547 73325s
   309   325 3.3555e+07   44 1449 3.4006e+07 3.0550e+07  10.2% 42536 75269s
   335   356 3.2111e+07   47 1474 3.4006e+07 3.0550e+07  10.2% 41329 78441s
H  352   356                    3.321344e+07 3.0550e+07  8.02% 40175 78441s
   368   390 3.2167e+07   48 1458 3.3213e+07 3.0550e+07  8.02% 39646 79601s
H  408   441                    3.320349e+07 3.0550e+07  7.99% 37554 80839s
H  424   441                    3.311093e+07 3.0550e+07  7.73% 36621 80839s
   461   491 3.2405e+07   67 1347 3.3111e+07 3.0550e+07  7.73% 35057 82763s
   519   541 3.2586e+07   79 1216 3.3111e+07 3.0550e+07  7.73% 32912 84479s
   579   602 3.3061e+07   88 1285 3.3111e+07 3.0550e+07  7.73% 31275 86241s

Cutting planes:
  Lift-and-project: 1
  Cover: 2
  Implied bound: 2278
  Clique: 5
  MIR: 642
  Flow cover: 2287
  Zero half: 68
  RLT: 407
  Relax-and-lift: 1943

Explored 646 nodes (21762387 simplex iterations) in 86253.71 seconds (70893.09 work units)
Thread count was 4 (of 128 available processors)

Solution count 5: 3.31109e+07 3.31109e+07 3.32035e+07 ... 3.40056e+07

Time limit reached
Best objective 3.311092950000e+07, best bound 3.054998708799e+07, gap 7.7344%

Solving took 	23:57:33.715
####################################################################################################
####################################################################################################
####################################################################################################
Reached timelimit, but could find a feasible solution
####################################################################################################
Description                          Value
----------------------------  ------------
Objective (min)               33,110,929.5
Cost sailing                  12,297,882.0
Cost port visits              20,502,293.0
Cost transshipment (demands)   1,607,714.5
Cost transshipment (empties)     235,246.0
Penalty delayed demands        1,888,971.0
Revenue Empties                3,506,567.0
Penalty rejected demands          85,390.0
Rejected demands (%)                  0.15
Omitted ports (%)                      0.0
Gap (%)                               7.73
####################################################################################################
Export solution
####################################################################################################
Overall time 	23:57:42.405

real	1437m44.335s
user	3529m9.339s
sys	0m26.866s
finished at Sat Mar 18 12:16:34 CET 2023
